--
&input
  zasr='simple', fildyn='pb.dyn', flfrc='pb333.fc'
/
