&control
    calculation     =  'bands'
    restart_mode    =  'from_scratch'
    prefix          =  'si'
    pseudo_dir      =  'pseudo/'
    outdir          =  'out/'
/
&system
    ibrav           =   0
    nbnd = 12
    nat             =   2
    ntyp            =   1
    ecutwfc         =  25.0
    ecutrho         = 200.0
/
&electrons
    conv_thr        =   1.0d-10
    diago_full_acc  = .true.
/
ATOMIC_SPECIES
Si  28.  Si.pbe-n-van.UPF
ATOMIC_POSITIONS crystal
Si  -0.25   0.75   -0.25
Si   0.00   0.00    0.00
K_POINTS crystal_b
3
0.5 0.5 0.5 50
0 0 0 50
0.5 0 0.5 50
CELL_PARAMETERS bohr
-5.1    0.0    5.1
 0.0    5.1    5.1
-5.1    5.1    0.0
