&inputpp
   outdir = './'
   prefix = 'pb'
   seedname = 'ex4'
   write_amn = .true.
   write_mmn = .true.
   scdm_entanglement = 'erfc'
   scdm_proj = .true.
   scdm_mu = 12.87653
   scdm_sigma = 1.62839
/

