--
&input
  zasr='simple', fildyn='sic.dyn', flfrc='sic333.fc'
/
