--
&BANDS
  prefix = 'sic'
  lsym   = .false.
/
