&control
    calculation     =  'nscf'
    restart_mode    =  'from_scratch'
    prefix          =  'si'
    pseudo_dir      =  'pseudo/'
    outdir          =  'out/'
/
&system
    ibrav           =   0
    nbnd = 12
    nat             =   2
    ntyp            =   1
    ecutwfc         =  25.0
    ecutrho         = 200.0
/
&electrons
    conv_thr        =   1.0d-10
    diago_full_acc  = .true.
/
ATOMIC_SPECIES
Si  28.  Si.pbe-n-van.UPF
ATOMIC_POSITIONS crystal
Si  -0.25   0.75   -0.25
Si   0.00   0.00    0.00
CELL_PARAMETERS bohr
-5.1    0.0    5.1
 0.0    5.1    5.1
-5.1    5.1    0.0
K_POINTS crystal
216
  0.00000000  0.00000000  0.00000000  4.629630e-03
  0.00000000  0.00000000  0.16666667  4.629630e-03
  0.00000000  0.00000000  0.33333333  4.629630e-03
  0.00000000  0.00000000  0.50000000  4.629630e-03
  0.00000000  0.00000000  0.66666667  4.629630e-03
  0.00000000  0.00000000  0.83333333  4.629630e-03
  0.00000000  0.16666667  0.00000000  4.629630e-03
  0.00000000  0.16666667  0.16666667  4.629630e-03
  0.00000000  0.16666667  0.33333333  4.629630e-03
  0.00000000  0.16666667  0.50000000  4.629630e-03
  0.00000000  0.16666667  0.66666667  4.629630e-03
  0.00000000  0.16666667  0.83333333  4.629630e-03
  0.00000000  0.33333333  0.00000000  4.629630e-03
  0.00000000  0.33333333  0.16666667  4.629630e-03
  0.00000000  0.33333333  0.33333333  4.629630e-03
  0.00000000  0.33333333  0.50000000  4.629630e-03
  0.00000000  0.33333333  0.66666667  4.629630e-03
  0.00000000  0.33333333  0.83333333  4.629630e-03
  0.00000000  0.50000000  0.00000000  4.629630e-03
  0.00000000  0.50000000  0.16666667  4.629630e-03
  0.00000000  0.50000000  0.33333333  4.629630e-03
  0.00000000  0.50000000  0.50000000  4.629630e-03
  0.00000000  0.50000000  0.66666667  4.629630e-03
  0.00000000  0.50000000  0.83333333  4.629630e-03
  0.00000000  0.66666667  0.00000000  4.629630e-03
  0.00000000  0.66666667  0.16666667  4.629630e-03
  0.00000000  0.66666667  0.33333333  4.629630e-03
  0.00000000  0.66666667  0.50000000  4.629630e-03
  0.00000000  0.66666667  0.66666667  4.629630e-03
  0.00000000  0.66666667  0.83333333  4.629630e-03
  0.00000000  0.83333333  0.00000000  4.629630e-03
  0.00000000  0.83333333  0.16666667  4.629630e-03
  0.00000000  0.83333333  0.33333333  4.629630e-03
  0.00000000  0.83333333  0.50000000  4.629630e-03
  0.00000000  0.83333333  0.66666667  4.629630e-03
  0.00000000  0.83333333  0.83333333  4.629630e-03
  0.16666667  0.00000000  0.00000000  4.629630e-03
  0.16666667  0.00000000  0.16666667  4.629630e-03
  0.16666667  0.00000000  0.33333333  4.629630e-03
  0.16666667  0.00000000  0.50000000  4.629630e-03
  0.16666667  0.00000000  0.66666667  4.629630e-03
  0.16666667  0.00000000  0.83333333  4.629630e-03
  0.16666667  0.16666667  0.00000000  4.629630e-03
  0.16666667  0.16666667  0.16666667  4.629630e-03
  0.16666667  0.16666667  0.33333333  4.629630e-03
  0.16666667  0.16666667  0.50000000  4.629630e-03
  0.16666667  0.16666667  0.66666667  4.629630e-03
  0.16666667  0.16666667  0.83333333  4.629630e-03
  0.16666667  0.33333333  0.00000000  4.629630e-03
  0.16666667  0.33333333  0.16666667  4.629630e-03
  0.16666667  0.33333333  0.33333333  4.629630e-03
  0.16666667  0.33333333  0.50000000  4.629630e-03
  0.16666667  0.33333333  0.66666667  4.629630e-03
  0.16666667  0.33333333  0.83333333  4.629630e-03
  0.16666667  0.50000000  0.00000000  4.629630e-03
  0.16666667  0.50000000  0.16666667  4.629630e-03
  0.16666667  0.50000000  0.33333333  4.629630e-03
  0.16666667  0.50000000  0.50000000  4.629630e-03
  0.16666667  0.50000000  0.66666667  4.629630e-03
  0.16666667  0.50000000  0.83333333  4.629630e-03
  0.16666667  0.66666667  0.00000000  4.629630e-03
  0.16666667  0.66666667  0.16666667  4.629630e-03
  0.16666667  0.66666667  0.33333333  4.629630e-03
  0.16666667  0.66666667  0.50000000  4.629630e-03
  0.16666667  0.66666667  0.66666667  4.629630e-03
  0.16666667  0.66666667  0.83333333  4.629630e-03
  0.16666667  0.83333333  0.00000000  4.629630e-03
  0.16666667  0.83333333  0.16666667  4.629630e-03
  0.16666667  0.83333333  0.33333333  4.629630e-03
  0.16666667  0.83333333  0.50000000  4.629630e-03
  0.16666667  0.83333333  0.66666667  4.629630e-03
  0.16666667  0.83333333  0.83333333  4.629630e-03
  0.33333333  0.00000000  0.00000000  4.629630e-03
  0.33333333  0.00000000  0.16666667  4.629630e-03
  0.33333333  0.00000000  0.33333333  4.629630e-03
  0.33333333  0.00000000  0.50000000  4.629630e-03
  0.33333333  0.00000000  0.66666667  4.629630e-03
  0.33333333  0.00000000  0.83333333  4.629630e-03
  0.33333333  0.16666667  0.00000000  4.629630e-03
  0.33333333  0.16666667  0.16666667  4.629630e-03
  0.33333333  0.16666667  0.33333333  4.629630e-03
  0.33333333  0.16666667  0.50000000  4.629630e-03
  0.33333333  0.16666667  0.66666667  4.629630e-03
  0.33333333  0.16666667  0.83333333  4.629630e-03
  0.33333333  0.33333333  0.00000000  4.629630e-03
  0.33333333  0.33333333  0.16666667  4.629630e-03
  0.33333333  0.33333333  0.33333333  4.629630e-03
  0.33333333  0.33333333  0.50000000  4.629630e-03
  0.33333333  0.33333333  0.66666667  4.629630e-03
  0.33333333  0.33333333  0.83333333  4.629630e-03
  0.33333333  0.50000000  0.00000000  4.629630e-03
  0.33333333  0.50000000  0.16666667  4.629630e-03
  0.33333333  0.50000000  0.33333333  4.629630e-03
  0.33333333  0.50000000  0.50000000  4.629630e-03
  0.33333333  0.50000000  0.66666667  4.629630e-03
  0.33333333  0.50000000  0.83333333  4.629630e-03
  0.33333333  0.66666667  0.00000000  4.629630e-03
  0.33333333  0.66666667  0.16666667  4.629630e-03
  0.33333333  0.66666667  0.33333333  4.629630e-03
  0.33333333  0.66666667  0.50000000  4.629630e-03
  0.33333333  0.66666667  0.66666667  4.629630e-03
  0.33333333  0.66666667  0.83333333  4.629630e-03
  0.33333333  0.83333333  0.00000000  4.629630e-03
  0.33333333  0.83333333  0.16666667  4.629630e-03
  0.33333333  0.83333333  0.33333333  4.629630e-03
  0.33333333  0.83333333  0.50000000  4.629630e-03
  0.33333333  0.83333333  0.66666667  4.629630e-03
  0.33333333  0.83333333  0.83333333  4.629630e-03
  0.50000000  0.00000000  0.00000000  4.629630e-03
  0.50000000  0.00000000  0.16666667  4.629630e-03
  0.50000000  0.00000000  0.33333333  4.629630e-03
  0.50000000  0.00000000  0.50000000  4.629630e-03
  0.50000000  0.00000000  0.66666667  4.629630e-03
  0.50000000  0.00000000  0.83333333  4.629630e-03
  0.50000000  0.16666667  0.00000000  4.629630e-03
  0.50000000  0.16666667  0.16666667  4.629630e-03
  0.50000000  0.16666667  0.33333333  4.629630e-03
  0.50000000  0.16666667  0.50000000  4.629630e-03
  0.50000000  0.16666667  0.66666667  4.629630e-03
  0.50000000  0.16666667  0.83333333  4.629630e-03
  0.50000000  0.33333333  0.00000000  4.629630e-03
  0.50000000  0.33333333  0.16666667  4.629630e-03
  0.50000000  0.33333333  0.33333333  4.629630e-03
  0.50000000  0.33333333  0.50000000  4.629630e-03
  0.50000000  0.33333333  0.66666667  4.629630e-03
  0.50000000  0.33333333  0.83333333  4.629630e-03
  0.50000000  0.50000000  0.00000000  4.629630e-03
  0.50000000  0.50000000  0.16666667  4.629630e-03
  0.50000000  0.50000000  0.33333333  4.629630e-03
  0.50000000  0.50000000  0.50000000  4.629630e-03
  0.50000000  0.50000000  0.66666667  4.629630e-03
  0.50000000  0.50000000  0.83333333  4.629630e-03
  0.50000000  0.66666667  0.00000000  4.629630e-03
  0.50000000  0.66666667  0.16666667  4.629630e-03
  0.50000000  0.66666667  0.33333333  4.629630e-03
  0.50000000  0.66666667  0.50000000  4.629630e-03
  0.50000000  0.66666667  0.66666667  4.629630e-03
  0.50000000  0.66666667  0.83333333  4.629630e-03
  0.50000000  0.83333333  0.00000000  4.629630e-03
  0.50000000  0.83333333  0.16666667  4.629630e-03
  0.50000000  0.83333333  0.33333333  4.629630e-03
  0.50000000  0.83333333  0.50000000  4.629630e-03
  0.50000000  0.83333333  0.66666667  4.629630e-03
  0.50000000  0.83333333  0.83333333  4.629630e-03
  0.66666667  0.00000000  0.00000000  4.629630e-03
  0.66666667  0.00000000  0.16666667  4.629630e-03
  0.66666667  0.00000000  0.33333333  4.629630e-03
  0.66666667  0.00000000  0.50000000  4.629630e-03
  0.66666667  0.00000000  0.66666667  4.629630e-03
  0.66666667  0.00000000  0.83333333  4.629630e-03
  0.66666667  0.16666667  0.00000000  4.629630e-03
  0.66666667  0.16666667  0.16666667  4.629630e-03
  0.66666667  0.16666667  0.33333333  4.629630e-03
  0.66666667  0.16666667  0.50000000  4.629630e-03
  0.66666667  0.16666667  0.66666667  4.629630e-03
  0.66666667  0.16666667  0.83333333  4.629630e-03
  0.66666667  0.33333333  0.00000000  4.629630e-03
  0.66666667  0.33333333  0.16666667  4.629630e-03
  0.66666667  0.33333333  0.33333333  4.629630e-03
  0.66666667  0.33333333  0.50000000  4.629630e-03
  0.66666667  0.33333333  0.66666667  4.629630e-03
  0.66666667  0.33333333  0.83333333  4.629630e-03
  0.66666667  0.50000000  0.00000000  4.629630e-03
  0.66666667  0.50000000  0.16666667  4.629630e-03
  0.66666667  0.50000000  0.33333333  4.629630e-03
  0.66666667  0.50000000  0.50000000  4.629630e-03
  0.66666667  0.50000000  0.66666667  4.629630e-03
  0.66666667  0.50000000  0.83333333  4.629630e-03
  0.66666667  0.66666667  0.00000000  4.629630e-03
  0.66666667  0.66666667  0.16666667  4.629630e-03
  0.66666667  0.66666667  0.33333333  4.629630e-03
  0.66666667  0.66666667  0.50000000  4.629630e-03
  0.66666667  0.66666667  0.66666667  4.629630e-03
  0.66666667  0.66666667  0.83333333  4.629630e-03
  0.66666667  0.83333333  0.00000000  4.629630e-03
  0.66666667  0.83333333  0.16666667  4.629630e-03
  0.66666667  0.83333333  0.33333333  4.629630e-03
  0.66666667  0.83333333  0.50000000  4.629630e-03
  0.66666667  0.83333333  0.66666667  4.629630e-03
  0.66666667  0.83333333  0.83333333  4.629630e-03
  0.83333333  0.00000000  0.00000000  4.629630e-03
  0.83333333  0.00000000  0.16666667  4.629630e-03
  0.83333333  0.00000000  0.33333333  4.629630e-03
  0.83333333  0.00000000  0.50000000  4.629630e-03
  0.83333333  0.00000000  0.66666667  4.629630e-03
  0.83333333  0.00000000  0.83333333  4.629630e-03
  0.83333333  0.16666667  0.00000000  4.629630e-03
  0.83333333  0.16666667  0.16666667  4.629630e-03
  0.83333333  0.16666667  0.33333333  4.629630e-03
  0.83333333  0.16666667  0.50000000  4.629630e-03
  0.83333333  0.16666667  0.66666667  4.629630e-03
  0.83333333  0.16666667  0.83333333  4.629630e-03
  0.83333333  0.33333333  0.00000000  4.629630e-03
  0.83333333  0.33333333  0.16666667  4.629630e-03
  0.83333333  0.33333333  0.33333333  4.629630e-03
  0.83333333  0.33333333  0.50000000  4.629630e-03
  0.83333333  0.33333333  0.66666667  4.629630e-03
  0.83333333  0.33333333  0.83333333  4.629630e-03
  0.83333333  0.50000000  0.00000000  4.629630e-03
  0.83333333  0.50000000  0.16666667  4.629630e-03
  0.83333333  0.50000000  0.33333333  4.629630e-03
  0.83333333  0.50000000  0.50000000  4.629630e-03
  0.83333333  0.50000000  0.66666667  4.629630e-03
  0.83333333  0.50000000  0.83333333  4.629630e-03
  0.83333333  0.66666667  0.00000000  4.629630e-03
  0.83333333  0.66666667  0.16666667  4.629630e-03
  0.83333333  0.66666667  0.33333333  4.629630e-03
  0.83333333  0.66666667  0.50000000  4.629630e-03
  0.83333333  0.66666667  0.66666667  4.629630e-03
  0.83333333  0.66666667  0.83333333  4.629630e-03
  0.83333333  0.83333333  0.00000000  4.629630e-03
  0.83333333  0.83333333  0.16666667  4.629630e-03
  0.83333333  0.83333333  0.33333333  4.629630e-03
  0.83333333  0.83333333  0.50000000  4.629630e-03
  0.83333333  0.83333333  0.66666667  4.629630e-03
  0.83333333  0.83333333  0.83333333  4.629630e-03
