 &control
    calculation='bands'
    restart_mode='from_scratch',
    prefix='pb',
    pseudo_dir = '../',
    outdir='./'
 /
 &system
    ibrav=  2, 
    celldm(1) = 9.2225583816,
    nat= 1,
    ntyp= 1,
    ecutwfc = 30.0
    occupations='smearing',
    smearing='marzari-vanderbilt',
    degauss=0.05
    nbnd=10
 /
 &electrons
    conv_thr =  1.0d-10
    mixing_beta = 0.7
 /
ATOMIC_SPECIES
 Pb 207.2 pb_s.UPF
ATOMIC_POSITIONS
 Pb 0.00 0.00 0.00
K_POINTS crystal_b
  7
  0.000 0.000 0.000  30
  0.500 0.000 0.500  30
  0.500 0.250 0.750  30
  0.500 0.500 0.500  30
  0.375 0.375 0.750  30
  0.000 0.000 0.000  30
  0.500 0.500 0.500  30
