--
&BANDS
  prefix = 'pb'
  lsym   = .false.
/
